NAME : tsp50_17.234.tour
COMMENT : Length = 234
COMMENT : Found by LKH [Keld Helsgaun]
TYPE : TOUR
DIMENSION : 50
TOUR_SECTION
1
5
4
15
32
30
24
33
13
27
12
22
39
37
31
48
42
49
2
19
8
10
35
11
44
50
29
38
34
23
3
41
21
14
43
28
6
46
45
25
20
47
26
40
17
7
9
16
18
36
-1
EOF
